# Objective value = 74
WA1n 0
WA1p 0
WA2n 0
WA2p 1
WB1n 0
WB1p 1
WC1n 0
WC1p 1
WD1n 0
WD1p 1
WD2n 0
WD2p 1
WE1n 2
WE1p 0
WE2n 1
WE2p 0
WF1n 0
WF1p 4
WF2n 0
WF2p 1
WG1n 0
WG1p 4
WG2n 0
WG2p 1
WH1n 0
WH1p 11
WH2n 0
WH2p 1
WI1n 0
WI1p 11
WI2n 0
WI2p 1
WT1n 0
WT1p 25
5 7
a 0
b 1
c 1
d 1
e 1
f 1
g 0
h 0
i 1
j 1
k 1
l 1
m 1
n 1
o 1
p 1
q 1
